; benchmark generated from python API
(set-info :status unknown)
(declare-fun DISJ_W_S1_R_S1 () Bool)
(declare-fun R_E1_V6 () Bool)
(declare-fun W_S1_V6 () Bool)
(declare-fun R_E1_V4 () Bool)
(declare-fun W_S1_V4 () Bool)
(declare-fun W_S1_V3 () Bool)
(declare-fun W_S1_V1 () Bool)
(declare-fun R_S1_V6 () Bool)
(declare-fun R_S1_V4 () Bool)
(declare-fun R_S1_V5 () Bool)
(declare-fun R_S1_V2 () Bool)
(declare-fun R_S1_V3 () Bool)
(declare-fun R_S1_V1 () Bool)
(declare-fun R_E2_V1 () Bool)
(declare-fun R_E1_V2 () Bool)
(declare-fun R_E1_V5 () Bool)
(declare-fun R_E2_V6 () Bool)
(declare-fun R_E2_V4 () Bool)
(declare-fun R_E2_V5 () Bool)
(declare-fun DISJ_W_S1_R_E2 () Bool)
(declare-fun W_S1_V5 () Bool)
(declare-fun W_S1_V2 () Bool)
(declare-fun R_E1_V3 () Bool)
(declare-fun R_E1_V1 () Bool)
(declare-fun R_E2_V3 () Bool)
(declare-fun DISJ_W_S1_R_E1 () Bool)
(assert
 (let (($x2466 (not DISJ_W_S1_R_S1)))
 (let (($x1289 (not (and W_S1_V6 R_E1_V6))))
 (let (($x430 (not (and W_S1_V4 R_E1_V4))))
 (let (($x4413 (forall ((V2_0 Int) )(forall ((V5_0 Int) )(forall ((V4_0 Int) )(forall ((V6_0 Int) )(forall ((MW_S1_V1 Bool) )(forall ((MW_S1_V3 Bool) )(forall ((MW_S1_V2 Bool) )(forall ((MW_S1_V5 Bool) )(forall ((MW_S1_V4 Bool) )(forall ((MW_S1_V6 Bool) )(forall ((S1_V1_!7162 Int) )(forall ((S1_V1_!7168 Int) )(forall ((S1_V1_!7177 Int) )(forall ((S1_V1_!7184 Int) )(forall ((S1_V3_!7163 Int) )(forall ((S1_V3_!7169 Int) )(forall ((S1_V3_!7178 Int) )(forall ((S1_V3_!7185 Int) )(forall ((S1_V2_!7164 Int) )(forall ((S1_V2_!7170 Int) )(forall ((S1_V2_!7179 Int) )(forall ((S1_V2_!7186 Int) )(forall ((E1_!7159 Int) )(forall ((E1_!7174 Int) )(forall ((E1_!7176 Int) )(forall ((E1_!7183 Int) )(forall ((S1_V5_!7165 Int) )(forall ((S1_V5_!7171 Int) )(forall ((S1_V5_!7180 Int) )(forall ((S1_V5_!7187 Int) )(forall ((E2_!7160 Int) )(forall ((E2_!7161 Int) )(forall ((E2_!7175 Int) )(forall ((S1_V4_!7166 Int) )(forall ((S1_V4_!7172 Int) )(forall ((S1_V4_!7181 Int) )(forall ((S1_V4_!7188 Int) )(forall ((S1_V6_!7167 Int) )(forall ((S1_V6_!7173 Int) )(forall ((S1_V6_!7182 Int) )(forall ((S1_V6_!7189 Int) )(let ((?x3249 (ite MW_S1_V3 S1_V3_!7178 E2_!7175)))
 (let ((?x2792 (+ 1 ?x3249)))
 (let ((?x2778 (ite MW_S1_V3 S1_V3_!7185 ?x2792)))
 (let ((?x5890 (ite MW_S1_V3 S1_V3_!7163 E2_!7161)))
 (let ((?x2691 (+ 1 ?x5890)))
 (let ((?x4056 (ite MW_S1_V3 S1_V3_!7169 ?x2691)))
 (let (($x1074 (and (= (ite MW_S1_V1 S1_V1_!7168 E1_!7159) (ite MW_S1_V1 S1_V1_!7184 E1_!7183)) (= ?x4056 ?x2778) (= (ite MW_S1_V2 S1_V2_!7170 V2_0) (ite MW_S1_V2 S1_V2_!7186 V2_0)) (= (ite MW_S1_V5 S1_V5_!7171 V5_0) (ite MW_S1_V5 S1_V5_!7187 V5_0)) (= (ite MW_S1_V4 S1_V4_!7172 V4_0) (ite MW_S1_V4 S1_V4_!7188 V4_0)) (= (ite MW_S1_V6 S1_V6_!7173 V6_0) (ite MW_S1_V6 S1_V6_!7189 V6_0)))))
 (let (($x1429 (and (not (<= V4_0 E2_!7160)) (not (<= V2_0 E1_!7159)) (not (<= V4_0 E2_!7161)) (not (<= (ite MW_S1_V4 S1_V4_!7166 V4_0) ?x2691)) (>= ?x4056 (+ (- 1) (ite MW_S1_V4 S1_V4_!7172 V4_0))) (>= (ite MW_S1_V1 S1_V1_!7168 E1_!7159) (+ (- 1) (ite MW_S1_V2 S1_V2_!7170 V2_0))) (not (<= V2_0 E1_!7174)) (not (<= V4_0 E2_!7175)) (not (<= V2_0 E1_!7176)) (>= (ite MW_S1_V1 S1_V1_!7177 E1_!7176) (+ (- 1) (ite MW_S1_V2 S1_V2_!7179 V2_0))) (not (<= (ite MW_S1_V4 S1_V4_!7181 V4_0) ?x2792)) (not (<= (ite MW_S1_V2 S1_V2_!7179 V2_0) E1_!7183)) (>= (ite MW_S1_V1 S1_V1_!7184 E1_!7183) (+ (- 1) (ite MW_S1_V2 S1_V2_!7186 V2_0))) (>= ?x2778 (+ (- 1) (ite MW_S1_V4 S1_V4_!7188 V4_0))))))
 (let (($x4647 (= S1_V6_!7189 S1_V6_!7173)))
 (let (($x2151 (and (or (not R_S1_V1) (= E1_!7183 (ite MW_S1_V1 S1_V1_!7162 E1_!7159))) (or (not R_S1_V3) (= ?x3249 ?x5890)) (or (not R_S1_V2) (= (ite MW_S1_V2 S1_V2_!7179 V2_0) (ite MW_S1_V2 S1_V2_!7164 V2_0))) (or (not R_S1_V5) (= (ite MW_S1_V5 S1_V5_!7180 V5_0) (ite MW_S1_V5 S1_V5_!7165 V5_0))) (or (not R_S1_V4) (= (ite MW_S1_V4 S1_V4_!7181 V4_0) (ite MW_S1_V4 S1_V4_!7166 V4_0))) (or (not R_S1_V6) (= (ite MW_S1_V6 S1_V6_!7182 V6_0) (ite MW_S1_V6 S1_V6_!7167 V6_0))))))
 (let (($x975 (not $x2151)))
 (let (($x2062 (= S1_V6_!7182 S1_V6_!7189)))
 (let ((?x5355 (ite MW_S1_V6 S1_V6_!7182 V6_0)))
 (let (($x513 (= V6_0 ?x5355)))
 (let (($x571 (not R_S1_V6)))
 (let (($x3676 (or $x571 $x513)))
 (let ((?x5581 (ite MW_S1_V4 S1_V4_!7181 V4_0)))
 (let (($x2763 (= V4_0 ?x5581)))
 (let (($x121 (not R_S1_V4)))
 (let (($x5809 (or $x121 $x2763)))
 (let (($x3281 (not R_S1_V5)))
 (let (($x1024 (or $x3281 (= V5_0 (ite MW_S1_V5 S1_V5_!7180 V5_0)))))
 (let ((?x1461 (ite MW_S1_V2 S1_V2_!7179 V2_0)))
 (let (($x4653 (= V2_0 ?x1461)))
 (let (($x4911 (not R_S1_V2)))
 (let (($x1452 (or $x4911 $x4653)))
 (let (($x1122 (and (or (not R_S1_V1) (= E1_!7176 E1_!7183)) (or (not R_S1_V3) (= E2_!7175 ?x2792)) $x1452 $x1024 $x5809 $x3676)))
 (let (($x1720 (not $x1122)))
 (let (($x860 (= S1_V6_!7182 S1_V6_!7173)))
 (let (($x1012 (or $x571 (= V6_0 (ite MW_S1_V6 S1_V6_!7167 V6_0)))))
 (let (($x349 (or $x121 (= V4_0 (ite MW_S1_V4 S1_V4_!7166 V4_0)))))
 (let (($x446 (or $x3281 (= V5_0 (ite MW_S1_V5 S1_V5_!7165 V5_0)))))
 (let (($x1069 (or $x4911 (= V2_0 (ite MW_S1_V2 S1_V2_!7164 V2_0)))))
 (let (($x1812 (and (or (not R_S1_V1) (= E1_!7176 (ite MW_S1_V1 S1_V1_!7162 E1_!7159))) (or (not R_S1_V3) (= E2_!7175 ?x2691)) $x1069 $x446 $x349 $x1012)))
 (let (($x5975 (not $x1812)))
 (let (($x5452 (and (or (not R_S1_V1) (= E1_!7159 E1_!7183)) (or (not R_S1_V3) (= E2_!7161 ?x2792)) $x1452 $x1024 $x5809 $x3676)))
 (let (($x2429 (not $x5452)))
 (let (($x1509 (and (or (not R_S1_V1) (= E1_!7159 E1_!7176)) (or (not R_S1_V3) (= E2_!7161 E2_!7175)))))
 (let (($x1762 (not $x1509)))
 (let (($x914 (and (or (not R_S1_V1) (= E1_!7159 (ite MW_S1_V1 S1_V1_!7162 E1_!7159))) (or (not R_S1_V3) (= E2_!7161 ?x2691)) $x1069 $x446 $x349 $x1012)))
 (let (($x308 (not $x914)))
 (let (($x4933 (= S1_V4_!7188 S1_V4_!7181)))
 (let (($x2715 (= ?x5355 V6_0)))
 (let (($x6078 (or $x571 $x2715)))
 (let (($x3987 (= ?x5581 V4_0)))
 (let (($x4711 (or $x121 $x3987)))
 (let (($x3489 (or $x3281 (= (ite MW_S1_V5 S1_V5_!7180 V5_0) V5_0))))
 (let (($x1019 (= ?x1461 V2_0)))
 (let (($x5465 (or $x4911 $x1019)))
 (let (($x2044 (and (or (not R_S1_V1) (= E1_!7183 E1_!7176)) (or (not R_S1_V3) (= ?x3249 (+ (- 1) E2_!7175))) $x5465 $x3489 $x4711 $x6078)))
 (let (($x3685 (not $x2044)))
 (let (($x207 (and (or (not R_S1_V1) (= E1_!7183 E1_!7159)) (or (not R_S1_V3) (= ?x3249 (+ (- 1) E2_!7161))) $x5465 $x3489 $x4711 $x6078)))
 (let (($x1176 (not $x207)))
 (let (($x3069 (and (or (not R_S1_V1) (= E1_!7176 E1_!7159)) (or (not R_S1_V3) (= E2_!7175 E2_!7161)))))
 (let (($x1135 (not $x3069)))
 (let (($x4945 (or $x571 (= (ite MW_S1_V6 S1_V6_!7167 V6_0) V6_0))))
 (let (($x4463 (or $x121 (= (ite MW_S1_V4 S1_V4_!7166 V4_0) V4_0))))
 (let (($x3291 (or $x3281 (= (ite MW_S1_V5 S1_V5_!7165 V5_0) V5_0))))
 (let (($x5917 (or $x4911 (= (ite MW_S1_V2 S1_V2_!7164 V2_0) V2_0))))
 (let (($x3628 (and (or (not R_S1_V1) (= (ite MW_S1_V1 S1_V1_!7162 E1_!7159) E1_!7159)) (or (not R_S1_V3) (= ?x5890 (+ (- 1) E2_!7161))) $x5917 $x3291 $x4463 $x4945)))
 (let (($x384 (not $x3628)))
 (let (($x4956 (= S1_V5_!7171 S1_V5_!7180)))
 (let (($x174 (and (or (not R_S1_V1) (= (ite MW_S1_V1 S1_V1_!7162 E1_!7159) E1_!7176)) (or (not R_S1_V3) (= ?x5890 (+ (- 1) E2_!7175))) $x5917 $x3291 $x4463 $x4945)))
 (let (($x4156 (not $x174)))
 (let (($x3651 (= E1_!7183 E1_!7176)))
 (let (($x488 (and (or (not R_E1_V2) $x1019) (or (not R_E1_V4) $x3987) (or (not R_E1_V6) $x2715))))
 (let (($x1443 (not $x488)))
 (let (($x925 (= E1_!7174 E1_!7176)))
 (let (($x3895 (= E1_!7159 E1_!7183)))
 (let (($x5938 (and (or (not R_E1_V2) $x4653) (or (not R_E1_V4) $x2763) (or (not R_E1_V6) $x513))))
 (let (($x3407 (= E1_!7159 E1_!7176)))
 (let (($x1613 (and (or (not R_S1_V1) (= (ite MW_S1_V1 S1_V1_!7162 E1_!7159) E1_!7183)) (or (not R_S1_V3) (= ?x5890 ?x3249)) (or $x4911 (= (ite MW_S1_V2 S1_V2_!7164 V2_0) ?x1461)) (or $x3281 (= (ite MW_S1_V5 S1_V5_!7165 V5_0) (ite MW_S1_V5 S1_V5_!7180 V5_0))) (or $x121 (= (ite MW_S1_V4 S1_V4_!7166 V4_0) ?x5581)) (or $x571 (= (ite MW_S1_V6 S1_V6_!7167 V6_0) ?x5355)))))
 (let (($x1035 (and (or $x308 (= S1_V1_!7162 S1_V1_!7168)) (or $x2429 (= S1_V1_!7162 S1_V1_!7184)) (or $x1135 (= S1_V1_!7177 S1_V1_!7162)) (or $x5975 (= S1_V1_!7177 S1_V1_!7168)) (or $x1720 (= S1_V1_!7177 S1_V1_!7184)) (or $x975 (= S1_V1_!7184 S1_V1_!7168)) (or $x308 (= S1_V3_!7163 S1_V3_!7169)) (or $x1762 (= S1_V3_!7163 S1_V3_!7178)) (or $x4156 (= S1_V3_!7169 S1_V3_!7178)) (or $x1176 (= S1_V3_!7185 S1_V3_!7163)) (or $x975 (= S1_V3_!7185 S1_V3_!7169)) (or $x3685 (= S1_V3_!7185 S1_V3_!7178)) (or $x308 (= S1_V2_!7164 S1_V2_!7170)) (or $x1762 (= S1_V2_!7164 S1_V2_!7179)) (or $x2429 (= S1_V2_!7164 S1_V2_!7186)) (or $x4156 (= S1_V2_!7170 S1_V2_!7179)) (or (not $x1613) (= S1_V2_!7170 S1_V2_!7186)) (or $x3685 (= S1_V2_!7186 S1_V2_!7179)) (= E1_!7159 E1_!7174) $x3407 (or (not $x5938) $x3895) $x925 (or $x1443 (= E1_!7183 E1_!7174)) (or $x1443 $x3651) (or $x1762 (= S1_V5_!7165 S1_V5_!7180)) (or $x384 (= S1_V5_!7171 S1_V5_!7165)) (or $x4156 $x4956) (or $x1176 (= S1_V5_!7187 S1_V5_!7165)) (or $x975 (= S1_V5_!7187 S1_V5_!7171)) (or $x3685 (= S1_V5_!7187 S1_V5_!7180)) (= E2_!7160 E2_!7161) (or (not (or (not R_E2_V1) (= E1_!7174 E1_!7159))) (= E2_!7175 E2_!7160)) (or (not (or (not R_E2_V1) (= E1_!7174 E1_!7159))) (= E2_!7175 E2_!7161)) (or $x384 (= S1_V4_!7172 S1_V4_!7166)) (or $x1135 (= S1_V4_!7181 S1_V4_!7166)) (or $x5975 (= S1_V4_!7181 S1_V4_!7172)) (or $x1176 (= S1_V4_!7188 S1_V4_!7166)) (or $x975 (= S1_V4_!7188 S1_V4_!7172)) (or $x3685 $x4933) (or $x308 (= S1_V6_!7167 S1_V6_!7173)) (or $x1762 (= S1_V6_!7167 S1_V6_!7182)) (or $x2429 (= S1_V6_!7167 S1_V6_!7189)) (or $x5975 $x860) (or $x1720 $x2062) (or $x975 $x4647) (or (not MW_S1_V1) W_S1_V1) (or (not MW_S1_V3) W_S1_V3) (not MW_S1_V2) (or (not MW_S1_V4) W_S1_V4) (or (not MW_S1_V6) W_S1_V6))))
 (or (not $x1035) (not $x1429) $x1074)))))))))))))))))))))))))))))))))))))))))))))))))))))))))))))))))))))))))))
 )
 )
 )
 )
 )
 )
 )
 )
 )
 )
 )
 )
 )
 )
 )
 )
 )
 )
 )
 )
 )
 )
 )
 )
 )
 )
 )
 )
 )
 )
 )
 )
 )
 )
 )
 )
 )
 )
 )
 )
 ))
 (let (($x3563 (not R_E1_V5)))
 (let (($x4943 (and W_S1_V6 R_S1_V6)))
 (let (($x2180 (and W_S1_V4 R_S1_V4)))
 (let (($x4671 (and W_S1_V3 R_S1_V3)))
 (let (($x924 (and W_S1_V1 R_S1_V1)))
 (let (($x2636 (= DISJ_W_S1_R_S1 (not (or $x924 $x4671 R_S1_V5 $x2180 $x4943)))))
 (let (($x182 (and W_S1_V6 R_E2_V6)))
 (let (($x3337 (and W_S1_V4 R_E2_V4)))
 (let (($x3261 (and W_S1_V1 R_E2_V1)))
 (let (($x1578 (= DISJ_W_S1_R_E2 (not (or $x3261 R_E2_V5 $x3337 $x182)))))
 (let (($x1236 (or DISJ_W_S1_R_S1 (not W_S1_V1) (and (not W_S1_V3) (not W_S1_V4)) (and (not R_S1_V1) (not R_S1_V3) (not W_S1_V4)))))
 (let (($x347 (not W_S1_V2)))
 (let (($x251 (not R_E1_V3)))
 (let (($x1588 (not R_E1_V1)))
 (let (($x2081 (not R_E2_V3)))
 (let (($x1504 (and DISJ_W_S1_R_E1 $x2081 $x1588 $x251 $x347 $x1236 W_S1_V5 $x1578 $x2636 $x3563 $x4413 $x430 $x1289)))
 (and $x1504 $x2466))))))))))))))))))))))
(check-sat)
